; Copyright (c) 2026 The RIINA Authors. All rights reserved.
; Auto-generated from 02_FORMAL/coq/domains/security_foundation/HardwareRootOfTrust.v (21 validations)
; Generated by scripts/generate-full-stack.py
;
; Translation Validation for HardwareRootOfTrust
; Layer 9: Verifies compiler backend preserves formal semantics.
; Each assertion checks source IR ≡ target code for a proven property.

(set-logic QF_LIA)
(set-option :produce-models true)

; IR node representation
(declare-sort IRNode 0)
(declare-sort TargetNode 0)

; hw_root_component: source semantics (matches Coq)
(declare-fun source_hw_root_component () Bool)
(declare-fun target_hw_root_component () Bool)
(assert (= source_hw_root_component target_hw_root_component))

; initial_hw_state: source semantics (matches Coq)
(declare-fun source_initial_hw_state () Bool)
(declare-fun target_initial_hw_state () Bool)
(assert (= source_initial_hw_state target_initial_hw_state))

; in_trust_chain: source semantics (matches Coq)
(declare-fun source_in_trust_chain () Bool)
(declare-fun target_in_trust_chain () Bool)
(assert (= source_in_trust_chain target_in_trust_chain))

; verified_from_hw_root: source semantics (matches Coq)
(declare-fun source_verified_from_hw_root () Bool)
(declare-fun target_verified_from_hw_root () Bool)
(assert (= source_verified_from_hw_root target_verified_from_hw_root))

; extend_trust_chain: source semantics (matches Coq)
(declare-fun source_extend_trust_chain () Bool)
(declare-fun target_extend_trust_chain () Bool)
(assert (= source_extend_trust_chain target_extend_trust_chain))

; record_pcr: source semantics (matches Coq)
(declare-fun source_record_pcr () Bool)
(declare-fun target_record_pcr () Bool)
(assert (= source_record_pcr target_record_pcr))

; component_trusted: source semantics (matches Coq)
(declare-fun source_component_trusted () Bool)
(declare-fun target_component_trusted () Bool)
(assert (= source_component_trusted target_component_trusted))

; hw_root_verified: source semantics (matches Coq)
(declare-fun source_hw_root_verified () Bool)
(declare-fun target_hw_root_verified () Bool)
(assert (= source_hw_root_verified target_hw_root_verified))

; root_key_protected: source semantics (matches Coq)
(declare-fun source_root_key_protected () Bool)
(declare-fun target_root_key_protected () Bool)
(assert (= source_root_key_protected target_root_key_protected))

; root_of_trust_hardware: translation preserves property (matches Coq: Theorem)
(declare-fun source_root_of_trust_hardware () Bool)
(declare-fun target_root_of_trust_hardware () Bool)
(assert (= source_root_of_trust_hardware target_root_of_trust_hardware))

; trust_extension_preserves_root: translation preserves property (matches Coq: Theorem)
(declare-fun source_trust_extension_preserves_root () Bool)
(declare-fun target_trust_extension_preserves_root () Bool)
(assert (= source_trust_extension_preserves_root target_trust_extension_preserves_root))

; extended_component_trusted: translation preserves property (matches Coq: Theorem)
(declare-fun source_extended_component_trusted () Bool)
(declare-fun target_extended_component_trusted () Bool)
(assert (= source_extended_component_trusted target_extended_component_trusted))

; untrusted_cannot_extend: translation preserves property (matches Coq: Theorem)
(declare-fun source_untrusted_cannot_extend () Bool)
(declare-fun target_untrusted_cannot_extend () Bool)
(assert (= source_untrusted_cannot_extend target_untrusted_cannot_extend))

; root_key_is_protected: translation preserves property (matches Coq: Theorem)
(declare-fun source_root_key_is_protected () Bool)
(declare-fun target_root_key_is_protected () Bool)
(assert (= source_root_key_is_protected target_root_key_is_protected))

; pcr_record_preserved: translation preserves property (matches Coq: Theorem)
(declare-fun source_pcr_record_preserved () Bool)
(declare-fun target_pcr_record_preserved () Bool)
(assert (= source_pcr_record_preserved target_pcr_record_preserved))

; hw_root_always_trusted: translation preserves property (matches Coq: Theorem)
(declare-fun source_hw_root_always_trusted () Bool)
(declare-fun target_hw_root_always_trusted () Bool)
(assert (= source_hw_root_always_trusted target_hw_root_always_trusted))

; attestation_key_present_initial: translation preserves property (matches Coq: Theorem)
(declare-fun source_attestation_key_present_initial () Bool)
(declare-fun target_attestation_key_present_initial () Bool)
(assert (= source_attestation_key_present_initial target_attestation_key_present_initial))

; hardware_initialized_initial: translation preserves property (matches Coq: Theorem)
(declare-fun source_hardware_initialized_initial () Bool)
(declare-fun target_hardware_initialized_initial () Bool)
(assert (= source_hardware_initialized_initial target_hardware_initialized_initial))

; trust_extension_preserves_attestation: translation preserves property (matches Coq: Theorem)
(declare-fun source_trust_extension_preserves_attestation () Bool)
(declare-fun target_trust_extension_preserves_attestation () Bool)
(assert (= source_trust_extension_preserves_attestation target_trust_extension_preserves_attestation))

; trust_extension_preserves_root_key: translation preserves property (matches Coq: Theorem)
(declare-fun source_trust_extension_preserves_root_key () Bool)
(declare-fun target_trust_extension_preserves_root_key () Bool)
(assert (= source_trust_extension_preserves_root_key target_trust_extension_preserves_root_key))

; trust_extension_preserves_init: translation preserves property (matches Coq: Theorem)
(declare-fun source_trust_extension_preserves_init () Bool)
(declare-fun target_trust_extension_preserves_init () Bool)
(assert (= source_trust_extension_preserves_init target_trust_extension_preserves_init))

; pcr_preserves_trust_chain: translation preserves property (matches Coq: Theorem)
(declare-fun source_pcr_preserves_trust_chain () Bool)
(declare-fun target_pcr_preserves_trust_chain () Bool)
(assert (= source_pcr_preserves_trust_chain target_pcr_preserves_trust_chain))

; pcr_preserves_root_key: translation preserves property (matches Coq: Theorem)
(declare-fun source_pcr_preserves_root_key () Bool)
(declare-fun target_pcr_preserves_root_key () Bool)
(assert (= source_pcr_preserves_root_key target_pcr_preserves_root_key))

; pcr_values_grow: translation preserves property (matches Coq: Theorem)
(declare-fun source_pcr_values_grow () Bool)
(declare-fun target_pcr_values_grow () Bool)
(assert (= source_pcr_values_grow target_pcr_values_grow))

; trust_chain_grows: translation preserves property (matches Coq: Theorem)
(declare-fun source_trust_chain_grows () Bool)
(declare-fun target_trust_chain_grows () Bool)
(assert (= source_trust_chain_grows target_trust_chain_grows))

; extended_chain_has_component: translation preserves property (matches Coq: Theorem)
(declare-fun source_extended_chain_has_component () Bool)
(declare-fun target_extended_chain_has_component () Bool)
(assert (= source_extended_chain_has_component target_extended_chain_has_component))

; hsm_type_invariant_extend: translation preserves property (matches Coq: Theorem)
(declare-fun source_hsm_type_invariant_extend () Bool)
(declare-fun target_hsm_type_invariant_extend () Bool)
(assert (= source_hsm_type_invariant_extend target_hsm_type_invariant_extend))

; hsm_type_invariant_pcr: translation preserves property (matches Coq: Theorem)
(declare-fun source_hsm_type_invariant_pcr () Bool)
(declare-fun target_hsm_type_invariant_pcr () Bool)
(assert (= source_hsm_type_invariant_pcr target_hsm_type_invariant_pcr))

; root_key_protection_preserved: translation preserves property (matches Coq: Theorem)
(declare-fun source_root_key_protection_preserved () Bool)
(declare-fun target_root_key_protection_preserved () Bool)
(assert (= source_root_key_protection_preserved target_root_key_protection_preserved))

; root_key_protection_preserved_pcr: translation preserves property (matches Coq: Theorem)
(declare-fun source_root_key_protection_preserved_pcr () Bool)
(declare-fun target_root_key_protection_preserved_pcr () Bool)
(assert (= source_root_key_protection_preserved_pcr target_root_key_protection_preserved_pcr))

; Verify all translation validations are satisfiable
(check-sat)
(exit)
